8 8
4
3 3 5 0
3 5 0 3
5 3 0 0
5 5 3 3
% time elapsed: 0.09 s
% time elapsed: 0.09 s
%%%mzn-stat: initTime=0.000225
%%%mzn-stat: solveTime=0.000277
%%%mzn-stat: solutions=8
%%%mzn-stat: variables=9
%%%mzn-stat: propagators=9
%%%mzn-stat: propagations=636
%%%mzn-stat: nodes=113
%%%mzn-stat: failures=24
%%%mzn-stat: restarts=9
%%%mzn-stat: peakDepth=14
%%%mzn-stat-end
